--- Job PAMP Model2.gms Start 11/26/23 17:56:05 44.4.0 06604687 WEX-WEI x86 64bit/MS Windows
--- Applying:
    Q:\GAMS\44\gmsprmNT.txt
    C:\Users\redhawc\Documents\GAMS\gamsconfig.yaml
--- GAMS Parameters defined
    Input "C:\Users\redhawc\Desktop\EDI_BUSANA\mathematic\GAMS_CODE\PAMP\PAMP Model2.gms"
    PageSize 0
    ScrDir C:\Users\redhawc\Desktop\EDI_BUSANA\mathematic\GAMS_CODE\PAMP\225a\
    SysDir Q:\GAMS\44\
    LogOption 3
    ErrMsg 1
    ErrorLog 99
    IDE 1
    LstTitleLeftAligned 1
Licensee: Course License                                 S230704|0002AO-GEN
          University of Edinburgh, Business School                  DCE2899
          C:\Users\redhawc\Documents\GAMS\gamslice.txt
          License Admin: Douglas Alem, douglas.alem@ed.ac.uk               
          Course license for use within the course and related course work
Processor information: 1 socket(s), 8 core(s), and 16 thread(s) available
GAMS 44.4.0   Copyright (C) 1987-2023 GAMS Development. All rights reserved
--- Starting compilation
--- PAMP Model2.gms(542) 3 Mb
--- Starting execution: elapsed 0:00:00.011
--- PAMP Model2.gms(462) 4 Mb
--- Generating MIP model crop_profit_model
--- PAMP Model2.gms(539) 5 Mb
---   7,434 rows  1,420 columns  16,235 non-zeroes
---   99 discrete-columns
--- Range statistics (absolute non-zero finite values)
--- RHS       [min, max] : [ 1.400E+03, 9.536E+07] - Zero values observed as well
--- Bound     [min, max] : [ 1.000E+00, 1.000E+00] - Zero values observed as well
--- Matrix    [min, max] : [ 1.000E-06, 1.000E+09]
--- Executing CPLEX (Solvelink=2): elapsed 0:00:00.054

IBM ILOG CPLEX   44.4.0 06604687 Sep 19, 2023          WEI x86 64bit/MS Window

--- GAMS/CPLEX licensed for continuous and discrete problems.
--- GMO setup time: 0.02s
--- Space for names approximately 0.36 Mb
--- Use option 'names no' to turn use of names off
--- GMO memory 1.99 Mb (peak 2.00 Mb)
--- Dictionary memory 0.00 Mb
--- Cplex 22.1.1.0 link memory 0.11 Mb (peak 0.68 Mb)
--- Starting Cplex

Version identifier: 22.1.1.0 | 2022-11-27 | 9160aff4d
CPXPARAM_Advance                                 0
CPXPARAM_Threads                                 1
CPXPARAM_MIP_Display                             4
CPXPARAM_MIP_Pool_Capacity                       0
CPXPARAM_MIP_Tolerances_AbsMIPGap                0
Generic callback                                 0x50
Tried aggregator 2 times.
MIP Presolve eliminated 7178 rows and 910 columns.
MIP Presolve modified 364 coefficients.
Aggregator did 9 substitutions.
Reduced MIP has 246 rows, 501 columns, and 1179 nonzeros.
Reduced MIP has 90 binaries, 0 generals, 0 SOSs, and 0 indicators.
Presolve time = 0.02 sec. (6.54 ticks)
Found incumbent of value 5.3529217e+12 after 0.05 sec. (7.84 ticks)
Probing time = 0.00 sec. (0.05 ticks)
Tried aggregator 3 times.
MIP Presolve eliminated 25 rows and 47 columns.
Aggregator did 22 substitutions.
Reduced MIP has 199 rows, 432 columns, and 1076 nonzeros.
Reduced MIP has 68 binaries, 0 generals, 0 SOSs, and 0 indicators.
Presolve time = 0.00 sec. (1.28 ticks)
Probing time = 0.00 sec. (0.04 ticks)
Tried aggregator 1 time.
Detecting symmetries...
Reduced MIP has 199 rows, 432 columns, and 1076 nonzeros.
Reduced MIP has 68 binaries, 0 generals, 0 SOSs, and 0 indicators.
Presolve time = 0.00 sec. (0.57 ticks)
Probing time = 0.00 sec. (0.04 ticks)
MIP emphasis: balance optimality and feasibility.
MIP search method: dynamic search.
Parallel mode: none, using 1 thread.
Tried aggregator 1 time.
LP Presolve eliminated 40 rows and 94 columns.
Aggregator did 24 substitutions.
Reduced LP has 135 rows, 314 columns, and 759 nonzeros.
Presolve time = 0.00 sec. (0.35 ticks)
Initializing dual steep norms . . .

Iteration log . . .
Iteration:     1   Scaled dual infeas =  600822117563.320801
Markowitz threshold set to 0.1
Iteration:    56   Scaled dual infeas =         43956.462310
Iteration:    57   Scaled dual infeas =         39109.495703
Iteration:    59   Dual objective     = 81311782665670.203125
Iteration:   122   Dual objective     = 57383692361042.523438
Iteration:   127   Dual objective     = 48607581848564.039062
Initializing dual steep norms . . .
Root relaxation solution time = 0.00 sec. (0.91 ticks)

        Nodes                                         Cuts/
   Node  Left     Objective  IInf  Best Integer    Best Bound    ItCnt     Gap

*     0+    0                       4.73644e+13   8.76943e+13            85.15%
Found incumbent of value 4.7364414e+13 after 0.06 sec. (23.91 ticks)
      0     0        cutoff         4.73644e+13                    134     --- 

Root node processing (before b&c):
  Real time             =    0.06 sec. (23.93 ticks)
Sequential b&c:
  Real time             =    0.00 sec. (0.00 ticks)
                          ------------
Total (root+branch&cut) =    0.06 sec. (23.93 ticks)

--- MIP status (101): integer optimal solution.
--- Cplex Time: 0.06sec (det. 23.93 ticks)

--- Returning a primal only solution to GAMS (marginals all set to NA).
--- Fixing integer variables and solving final LP...

Version identifier: 22.1.1.0 | 2022-11-27 | 9160aff4d
CPXPARAM_Advance                                 2
CPXPARAM_Threads                                 1
CPXPARAM_MIP_Display                             4
CPXPARAM_MIP_Pool_Capacity                       0
CPXPARAM_MIP_Tolerances_AbsMIPGap                0
Tried aggregator 1 time.
LP Presolve eliminated 7269 rows and 1065 columns.
Aggregator did 14 substitutions.
Reduced LP has 150 rows, 341 columns, and 675 nonzeros.
Presolve time = 0.00 sec. (3.36 ticks)
Initializing dual steep norms . . .

Iteration log . . .
Iteration:     1   Scaled dual infeas =        575306.688200
Iteration:    40   Dual objective     = 47364414153184.195312

--- Fixed MIP status (1): optimal.
--- Cplex Time: 0.02sec (det. 5.92 ticks)


Proven optimal solution
MIP Solution:  47364414153184.203125    (134 iterations, 0 nodes)
Final Solve:   47364414153184.187500    (40 iterations)

Best possible: 47364414153184.203125
Absolute gap:            0.015625
Relative gap:            0.000000

--- Reading solution for model crop_profit_model
--- Executing after solve: elapsed 0:00:00.242
--- PAMP Model2.gms(540) 5 Mb
*** Status: Normal completion
--- Job PAMP Model2.gms Stop 11/26/23 17:56:05 elapsed 0:00:00.242
